p cnf 169 674
-1 -33 0
-2 -33 0
1 2 33 0
1 2 -34 0
-1 -2 -34 0
-1 2 34 0
1 -2 34 0
33 -35 0
-3 -35 0
3 -33 35 0
3 -33 -36 0
-3 33 -36 0
3 33 36 0
-3 -33 36 0
35 -37 0
-4 -37 0
4 -35 37 0
4 -35 -38 0
-4 35 -38 0
4 35 38 0
-4 -35 38 0
37 -39 0
-5 -39 0
5 -37 39 0
5 -37 -40 0
-5 37 -40 0
5 37 40 0
-5 -37 40 0
39 -41 0
-6 -41 0
6 -39 41 0
6 -39 -42 0
-6 39 -42 0
6 39 42 0
-6 -39 42 0
41 -43 0
-7 -43 0
7 -41 43 0
7 -41 -44 0
-7 41 -44 0
7 41 44 0
-7 -41 44 0
43 -45 0
-8 -45 0
8 -43 45 0
8 -43 -46 0
-8 43 -46 0
8 43 46 0
-8 -43 46 0
-1 -47 0
-2 -47 0
1 2 47 0
1 2 -48 0
-1 -2 -48 0
-1 2 48 0
1 -2 48 0
47 -49 0
-3 -49 0
3 -47 49 0
3 -47 -50 0
-3 47 -50 0
3 47 50 0
-3 -47 50 0
49 -51 0
-4 -51 0
4 -49 51 0
4 -49 -52 0
-4 49 -52 0
4 49 52 0
-4 -49 52 0
51 -53 0
-5 -53 0
5 -51 53 0
5 -51 -54 0
-5 51 -54 0
5 51 54 0
-5 -51 54 0
53 -55 0
-6 -55 0
6 -53 55 0
6 -53 -56 0
-6 53 -56 0
6 53 56 0
-6 -53 56 0
55 -57 0
-7 -57 0
7 -55 57 0
7 -55 -58 0
-7 55 -58 0
7 55 58 0
-7 -55 58 0
57 -59 0
-8 -59 0
8 -57 59 0
8 -57 -60 0
-8 57 -60 0
8 57 60 0
-8 -57 60 0
-9 -61 0
-10 -61 0
9 10 61 0
9 10 -62 0
-9 -10 -62 0
-9 10 62 0
9 -10 62 0
61 -63 0
-11 -63 0
11 -61 63 0
11 -61 -64 0
-11 61 -64 0
11 61 64 0
-11 -61 64 0
63 -65 0
-12 -65 0
12 -63 65 0
12 -63 -66 0
-12 63 -66 0
12 63 66 0
-12 -63 66 0
65 -67 0
-13 -67 0
13 -65 67 0
13 -65 -68 0
-13 65 -68 0
13 65 68 0
-13 -65 68 0
67 -69 0
-14 -69 0
14 -67 69 0
14 -67 -70 0
-14 67 -70 0
14 67 70 0
-14 -67 70 0
69 -71 0
-15 -71 0
15 -69 71 0
15 -69 -72 0
-15 69 -72 0
15 69 72 0
-15 -69 72 0
71 -73 0
-16 -73 0
16 -71 73 0
16 -71 -74 0
-16 71 -74 0
16 71 74 0
-16 -71 74 0
10 -75 0
9 -75 0
-9 -10 75 0
-9 -10 -76 0
9 10 -76 0
9 -10 76 0
-9 10 76 0
-10 -11 77 0
-11 -75 77 0
-10 -75 77 0
10 11 -77 0
11 75 -77 0
10 75 -77 0
11 -77 -78 0
10 -77 -78 0
75 -77 -78 0
-11 77 78 0
-10 77 78 0
-75 77 78 0
-10 -11 -75 78 0
10 11 75 -78 0
-11 -12 79 0
-12 -77 79 0
-11 -77 79 0
11 12 -79 0
12 77 -79 0
11 77 -79 0
12 -79 -80 0
11 -79 -80 0
77 -79 -80 0
-12 79 80 0
-11 79 80 0
-77 79 80 0
-11 -12 -77 80 0
11 12 77 -80 0
-12 -13 81 0
-13 -79 81 0
-12 -79 81 0
12 13 -81 0
13 79 -81 0
12 79 -81 0
13 -81 -82 0
12 -81 -82 0
79 -81 -82 0
-13 81 82 0
-12 81 82 0
-79 81 82 0
-12 -13 -79 82 0
12 13 79 -82 0
-13 -14 83 0
-14 -81 83 0
-13 -81 83 0
13 14 -83 0
14 81 -83 0
13 81 -83 0
14 -83 -84 0
13 -83 -84 0
81 -83 -84 0
-14 83 84 0
-13 83 84 0
-81 83 84 0
-13 -14 -81 84 0
13 14 81 -84 0
-14 -15 85 0
-15 -83 85 0
-14 -83 85 0
14 15 -85 0
15 83 -85 0
14 83 -85 0
15 -85 -86 0
14 -85 -86 0
83 -85 -86 0
-15 85 86 0
-14 85 86 0
-83 85 86 0
-14 -15 -83 86 0
14 15 83 -86 0
-15 -16 87 0
-16 -85 87 0
-15 -85 87 0
15 16 -87 0
16 85 -87 0
15 85 -87 0
16 -87 -88 0
15 -87 -88 0
85 -87 -88 0
-16 87 88 0
-15 87 88 0
-85 87 88 0
-15 -16 -85 88 0
15 16 85 -88 0
16 -89 0
87 -89 0
-16 -87 89 0
-16 -87 -90 0
16 87 -90 0
-16 87 90 0
16 -87 90 0
78 -91 0
9 -91 0
-9 -78 91 0
-9 -78 -92 0
9 78 -92 0
9 -78 92 0
-9 78 92 0
-10 -80 93 0
-80 -91 93 0
-10 -91 93 0
10 80 -93 0
80 91 -93 0
10 91 -93 0
80 -93 -94 0
10 -93 -94 0
91 -93 -94 0
-80 93 94 0
-10 93 94 0
-91 93 94 0
-10 -80 -91 94 0
10 80 91 -94 0
-11 -82 95 0
-82 -93 95 0
-11 -93 95 0
11 82 -95 0
82 93 -95 0
11 93 -95 0
82 -95 -96 0
11 -95 -96 0
93 -95 -96 0
-82 95 96 0
-11 95 96 0
-93 95 96 0
-11 -82 -93 96 0
11 82 93 -96 0
-12 -84 97 0
-84 -95 97 0
-12 -95 97 0
12 84 -97 0
84 95 -97 0
12 95 -97 0
84 -97 -98 0
12 -97 -98 0
95 -97 -98 0
-84 97 98 0
-12 97 98 0
-95 97 98 0
-12 -84 -95 98 0
12 84 95 -98 0
-13 -86 99 0
-86 -97 99 0
-13 -97 99 0
13 86 -99 0
86 97 -99 0
13 97 -99 0
86 -99 -100 0
13 -99 -100 0
97 -99 -100 0
-86 99 100 0
-13 99 100 0
-97 99 100 0
-13 -86 -97 100 0
13 86 97 -100 0
-14 -88 101 0
-88 -99 101 0
-14 -99 101 0
14 88 -101 0
88 99 -101 0
14 99 -101 0
88 -101 -102 0
14 -101 -102 0
99 -101 -102 0
-88 101 102 0
-14 101 102 0
-99 101 102 0
-14 -88 -99 102 0
14 88 99 -102 0
-15 -90 103 0
-90 -101 103 0
-15 -101 103 0
15 90 -103 0
90 101 -103 0
15 101 -103 0
90 -103 -104 0
15 -103 -104 0
101 -103 -104 0
-90 103 104 0
-15 103 104 0
-101 103 104 0
-15 -90 -101 104 0
15 90 101 -104 0
-16 -89 105 0
-89 -103 105 0
-16 -103 105 0
16 89 -105 0
89 103 -105 0
16 103 -105 0
89 -105 -106 0
16 -105 -106 0
103 -105 -106 0
-89 105 106 0
-16 105 106 0
-103 105 106 0
-16 -89 -103 106 0
16 89 103 -106 0
96 -107 0
9 -107 0
-9 -96 107 0
-9 -96 -108 0
9 96 -108 0
9 -96 108 0
-9 96 108 0
-10 -98 109 0
-98 -107 109 0
-10 -107 109 0
10 98 -109 0
98 107 -109 0
10 107 -109 0
98 -109 -110 0
10 -109 -110 0
107 -109 -110 0
-98 109 110 0
-10 109 110 0
-107 109 110 0
-10 -98 -107 110 0
10 98 107 -110 0
-11 -100 111 0
-100 -109 111 0
-11 -109 111 0
11 100 -111 0
100 109 -111 0
11 109 -111 0
100 -111 -112 0
11 -111 -112 0
109 -111 -112 0
-100 111 112 0
-11 111 112 0
-109 111 112 0
-11 -100 -109 112 0
11 100 109 -112 0
-12 -102 113 0
-102 -111 113 0
-12 -111 113 0
12 102 -113 0
102 111 -113 0
12 111 -113 0
102 -113 -114 0
12 -113 -114 0
111 -113 -114 0
-102 113 114 0
-12 113 114 0
-111 113 114 0
-12 -102 -111 114 0
12 102 111 -114 0
-13 -104 115 0
-104 -113 115 0
-13 -113 115 0
13 104 -115 0
104 113 -115 0
13 113 -115 0
104 -115 -116 0
13 -115 -116 0
113 -115 -116 0
-104 115 116 0
-13 115 116 0
-113 115 116 0
-13 -104 -113 116 0
13 104 113 -116 0
-14 -106 117 0
-106 -115 117 0
-14 -115 117 0
14 106 -117 0
106 115 -117 0
14 115 -117 0
106 -117 -118 0
14 -117 -118 0
115 -117 -118 0
-106 117 118 0
-14 117 118 0
-115 117 118 0
-14 -106 -115 118 0
14 106 115 -118 0
-15 -105 119 0
-105 -117 119 0
-15 -117 119 0
15 105 -119 0
105 117 -119 0
15 117 -119 0
105 -119 -120 0
15 -119 -120 0
117 -119 -120 0
-105 119 120 0
-15 119 120 0
-117 119 120 0
-15 -105 -117 120 0
15 105 117 -120 0
16 -121 0
119 -121 0
-16 -119 121 0
-16 -119 -122 0
16 119 -122 0
-16 119 122 0
16 -119 122 0
-9 -123 0
-76 -123 0
9 76 123 0
9 76 -124 0
-9 -76 -124 0
-9 76 124 0
9 -76 124 0
123 -125 0
-92 -125 0
92 -123 125 0
92 -123 -126 0
-92 123 -126 0
92 123 126 0
-92 -123 126 0
125 -127 0
-94 -127 0
94 -125 127 0
94 -125 -128 0
-94 125 -128 0
94 125 128 0
-94 -125 128 0
127 -129 0
-108 -129 0
108 -127 129 0
108 -127 -130 0
-108 127 -130 0
108 127 130 0
-108 -127 130 0
129 -131 0
-110 -131 0
110 -129 131 0
110 -129 -132 0
-110 129 -132 0
110 129 132 0
-110 -129 132 0
131 -133 0
-112 -133 0
112 -131 133 0
112 -131 -134 0
-112 131 -134 0
112 131 134 0
-112 -131 134 0
133 -135 0
-114 -135 0
114 -133 135 0
114 -133 -136 0
-114 133 -136 0
114 133 136 0
-114 -133 136 0
135 -137 0
-116 -137 0
116 -135 137 0
116 -135 -138 0
-116 135 -138 0
116 135 138 0
-116 -135 138 0
137 -139 0
-118 -139 0
118 -137 139 0
118 -137 -140 0
-118 137 -140 0
118 137 140 0
-118 -137 140 0
139 -141 0
-120 -141 0
120 -139 141 0
120 -139 -142 0
-120 139 -142 0
120 139 142 0
-120 -139 142 0
141 -143 0
-122 -143 0
122 -141 143 0
122 -141 -144 0
-122 141 -144 0
122 141 144 0
-122 -141 144 0
143 -145 0
-121 -145 0
121 -143 145 0
121 -143 -146 0
-121 143 -146 0
121 143 146 0
-121 -143 146 0
1 -147 0
92 -147 0
-1 -92 147 0
-1 -92 -148 0
1 92 -148 0
-1 92 148 0
1 -92 148 0
-2 -94 149 0
-2 -147 149 0
-94 -147 149 0
2 94 -149 0
2 147 -149 0
94 147 -149 0
2 -149 -150 0
94 -149 -150 0
147 -149 -150 0
-2 149 150 0
-94 149 150 0
-147 149 150 0
-2 -94 -147 150 0
2 94 147 -150 0
-3 -108 151 0
-3 -149 151 0
-108 -149 151 0
3 108 -151 0
3 149 -151 0
108 149 -151 0
3 -151 -152 0
108 -151 -152 0
149 -151 -152 0
-3 151 152 0
-108 151 152 0
-149 151 152 0
-3 -108 -149 152 0
3 108 149 -152 0
-4 -110 153 0
-4 -151 153 0
-110 -151 153 0
4 110 -153 0
4 151 -153 0
110 151 -153 0
4 -153 -154 0
110 -153 -154 0
151 -153 -154 0
-4 153 154 0
-110 153 154 0
-151 153 154 0
-4 -110 -151 154 0
4 110 151 -154 0
-5 -112 155 0
-5 -153 155 0
-112 -153 155 0
5 112 -155 0
5 153 -155 0
112 153 -155 0
5 -155 -156 0
112 -155 -156 0
153 -155 -156 0
-5 155 156 0
-112 155 156 0
-153 155 156 0
-5 -112 -153 156 0
5 112 153 -156 0
-6 -114 157 0
-6 -155 157 0
-114 -155 157 0
6 114 -157 0
6 155 -157 0
114 155 -157 0
6 -157 -158 0
114 -157 -158 0
155 -157 -158 0
-6 157 158 0
-114 157 158 0
-155 157 158 0
-6 -114 -155 158 0
6 114 155 -158 0
-7 -116 159 0
-7 -157 159 0
-116 -157 159 0
7 116 -159 0
7 157 -159 0
116 157 -159 0
7 -159 -160 0
116 -159 -160 0
157 -159 -160 0
-7 159 160 0
-116 159 160 0
-157 159 160 0
-7 -116 -157 160 0
7 116 157 -160 0
-8 -118 161 0
-8 -159 161 0
-118 -159 161 0
8 118 -161 0
8 159 -161 0
118 159 -161 0
8 -161 -162 0
118 -161 -162 0
159 -161 -162 0
-8 161 162 0
-118 161 162 0
-159 161 162 0
-8 -118 -159 162 0
8 118 159 -162 0
120 -163 0
161 -163 0
-120 -161 163 0
-120 -161 -164 0
120 161 -164 0
-120 161 164 0
120 -161 164 0
122 -165 0
163 -165 0
-122 -163 165 0
-122 -163 -166 0
122 163 -166 0
-122 163 166 0
122 -163 166 0
121 -167 0
165 -167 0
-121 -165 167 0
-121 -165 -168 0
121 165 -168 0
-121 165 168 0
121 -165 168 0
9 -169 0
76 -169 0
148 -169 0
150 -169 0
-152 -169 0
-154 -169 0
156 -169 0
-158 -169 0
-160 -169 0
-162 -169 0
-164 -169 0
-166 -169 0
-167 -169 0
-168 -169 0
-9 -76 -148 -150 152 154 -156 158 160 162 164 166 167 168 169 0
169 0
c main::$tmp::return_value_nondet_char!0@1#1 17 18 19 20 21 22 23 24
c symex::nondet1 9 10 11 12 13 14 15 16
c symex::nondet0 1 2 3 4 5 6 7 8
c main::$tmp::return_value_nondet_char$0!0@1#2 9 10 11 12 13 14 15 16
c __CPROVER_rounding_mode!0#1 FALSE FALSE FALSE FALSE FALSE FALSE FALSE FALSE FALSE FALSE FALSE FALSE FALSE FALSE FALSE FALSE FALSE FALSE FALSE FALSE FALSE FALSE FALSE FALSE FALSE FALSE FALSE FALSE FALSE FALSE FALSE FALSE
c main::$tmp::return_value_nondet_char$0!0@1#1 25 26 27 28 29 30 31 32
c __CPROVER_memory_leak#1 FALSE FALSE FALSE FALSE FALSE FALSE FALSE FALSE FALSE FALSE FALSE FALSE FALSE FALSE FALSE FALSE FALSE FALSE FALSE FALSE FALSE FALSE FALSE FALSE FALSE FALSE FALSE FALSE FALSE FALSE FALSE FALSE FALSE FALSE FALSE FALSE FALSE FALSE FALSE FALSE FALSE FALSE FALSE FALSE FALSE FALSE FALSE FALSE FALSE FALSE FALSE FALSE FALSE FALSE FALSE FALSE FALSE FALSE FALSE FALSE FALSE FALSE FALSE FALSE
c __CPROVER_max_malloc_size#1 FALSE FALSE FALSE FALSE FALSE FALSE FALSE FALSE FALSE FALSE FALSE FALSE FALSE FALSE FALSE FALSE FALSE FALSE FALSE FALSE FALSE FALSE FALSE FALSE FALSE FALSE FALSE FALSE FALSE FALSE FALSE FALSE FALSE FALSE FALSE FALSE FALSE FALSE FALSE FALSE FALSE FALSE FALSE FALSE FALSE FALSE FALSE FALSE FALSE FALSE FALSE FALSE FALSE FALSE FALSE TRUE FALSE FALSE FALSE FALSE FALSE FALSE FALSE FALSE
c __CPROVER_deallocated#1 FALSE FALSE FALSE FALSE FALSE FALSE FALSE FALSE FALSE FALSE FALSE FALSE FALSE FALSE FALSE FALSE FALSE FALSE FALSE FALSE FALSE FALSE FALSE FALSE FALSE FALSE FALSE FALSE FALSE FALSE FALSE FALSE FALSE FALSE FALSE FALSE FALSE FALSE FALSE FALSE FALSE FALSE FALSE FALSE FALSE FALSE FALSE FALSE FALSE FALSE FALSE FALSE FALSE FALSE FALSE FALSE FALSE FALSE FALSE FALSE FALSE FALSE FALSE FALSE
c main::$tmp::return_value_nondet_char!0@1#2 1 2 3 4 5 6 7 8
c __CPROVER_dead_object#1 FALSE FALSE FALSE FALSE FALSE FALSE FALSE FALSE FALSE FALSE FALSE FALSE FALSE FALSE FALSE FALSE FALSE FALSE FALSE FALSE FALSE FALSE FALSE FALSE FALSE FALSE FALSE FALSE FALSE FALSE FALSE FALSE FALSE FALSE FALSE FALSE FALSE FALSE FALSE FALSE FALSE FALSE FALSE FALSE FALSE FALSE FALSE FALSE FALSE FALSE FALSE FALSE FALSE FALSE FALSE FALSE FALSE FALSE FALSE FALSE FALSE FALSE FALSE FALSE
